c
c Generated WCNF file
c
p wcnf 137 633 35388
35388 17 0
35388 -18 1 0
35388 -18 2 0
35388 18 -1 -2 0
35388 -19 1 0
35388 -19 3 0
35388 19 -1 -3 0
35388 -20 1 0
35388 -20 4 0
35388 20 -1 -4 0
35388 -21 1 0
35388 -21 5 0
35388 21 -1 -5 0
35388 -22 1 0
35388 -22 6 0
35388 22 -1 -6 0
35388 -23 1 0
35388 -23 7 0
35388 23 -1 -7 0
35388 -24 1 0
35388 -24 8 0
35388 24 -1 -8 0
35388 -25 1 0
35388 -25 9 0
35388 25 -1 -9 0
35388 -26 1 0
35388 -26 10 0
35388 26 -1 -10 0
35388 -27 1 0
35388 -27 11 0
35388 27 -1 -11 0
35388 -28 1 0
35388 -28 12 0
35388 28 -1 -12 0
35388 -29 1 0
35388 -29 13 0
35388 29 -1 -13 0
35388 -30 1 0
35388 -30 14 0
35388 30 -1 -14 0
35388 -31 1 0
35388 -31 15 0
35388 31 -1 -15 0
35388 -32 1 0
35388 -32 16 0
35388 32 -1 -16 0
35388 -33 2 0
35388 -33 3 0
35388 33 -2 -3 0
35388 -34 2 0
35388 -34 4 0
35388 34 -2 -4 0
35388 -35 2 0
35388 -35 5 0
35388 35 -2 -5 0
35388 -36 2 0
35388 -36 6 0
35388 36 -2 -6 0
35388 -37 2 0
35388 -37 7 0
35388 37 -2 -7 0
35388 -38 2 0
35388 -38 8 0
35388 38 -2 -8 0
35388 -39 2 0
35388 -39 9 0
35388 39 -2 -9 0
35388 -40 2 0
35388 -40 10 0
35388 40 -2 -10 0
35388 -41 2 0
35388 -41 11 0
35388 41 -2 -11 0
35388 -42 2 0
35388 -42 12 0
35388 42 -2 -12 0
35388 -43 2 0
35388 -43 13 0
35388 43 -2 -13 0
35388 -44 2 0
35388 -44 14 0
35388 44 -2 -14 0
35388 -45 2 0
35388 -45 15 0
35388 45 -2 -15 0
35388 -46 2 0
35388 -46 16 0
35388 46 -2 -16 0
35388 -47 3 0
35388 -47 4 0
35388 47 -3 -4 0
35388 -48 3 0
35388 -48 5 0
35388 48 -3 -5 0
35388 -49 3 0
35388 -49 6 0
35388 49 -3 -6 0
35388 -50 3 0
35388 -50 7 0
35388 50 -3 -7 0
35388 -51 3 0
35388 -51 8 0
35388 51 -3 -8 0
35388 -52 3 0
35388 -52 9 0
35388 52 -3 -9 0
35388 -53 3 0
35388 -53 10 0
35388 53 -3 -10 0
35388 -54 3 0
35388 -54 11 0
35388 54 -3 -11 0
35388 -55 3 0
35388 -55 12 0
35388 55 -3 -12 0
35388 -56 3 0
35388 -56 13 0
35388 56 -3 -13 0
35388 -57 3 0
35388 -57 14 0
35388 57 -3 -14 0
35388 -58 3 0
35388 -58 15 0
35388 58 -3 -15 0
35388 -59 3 0
35388 -59 16 0
35388 59 -3 -16 0
35388 -60 4 0
35388 -60 5 0
35388 60 -4 -5 0
35388 -61 4 0
35388 -61 6 0
35388 61 -4 -6 0
35388 -62 4 0
35388 -62 7 0
35388 62 -4 -7 0
35388 -63 4 0
35388 -63 8 0
35388 63 -4 -8 0
35388 -64 4 0
35388 -64 9 0
35388 64 -4 -9 0
35388 -65 4 0
35388 -65 10 0
35388 65 -4 -10 0
35388 -66 4 0
35388 -66 11 0
35388 66 -4 -11 0
35388 -67 4 0
35388 -67 12 0
35388 67 -4 -12 0
35388 -68 4 0
35388 -68 13 0
35388 68 -4 -13 0
35388 -69 4 0
35388 -69 14 0
35388 69 -4 -14 0
35388 -70 4 0
35388 -70 15 0
35388 70 -4 -15 0
35388 -71 4 0
35388 -71 16 0
35388 71 -4 -16 0
35388 -72 5 0
35388 -72 6 0
35388 72 -5 -6 0
35388 -73 5 0
35388 -73 7 0
35388 73 -5 -7 0
35388 -74 5 0
35388 -74 8 0
35388 74 -5 -8 0
35388 -75 5 0
35388 -75 9 0
35388 75 -5 -9 0
35388 -76 5 0
35388 -76 10 0
35388 76 -5 -10 0
35388 -77 5 0
35388 -77 11 0
35388 77 -5 -11 0
35388 -78 5 0
35388 -78 12 0
35388 78 -5 -12 0
35388 -79 5 0
35388 -79 13 0
35388 79 -5 -13 0
35388 -80 5 0
35388 -80 14 0
35388 80 -5 -14 0
35388 -81 5 0
35388 -81 15 0
35388 81 -5 -15 0
35388 -82 5 0
35388 -82 16 0
35388 82 -5 -16 0
35388 -83 6 0
35388 -83 7 0
35388 83 -6 -7 0
35388 -84 6 0
35388 -84 8 0
35388 84 -6 -8 0
35388 -85 6 0
35388 -85 9 0
35388 85 -6 -9 0
35388 -86 6 0
35388 -86 10 0
35388 86 -6 -10 0
35388 -87 6 0
35388 -87 11 0
35388 87 -6 -11 0
35388 -88 6 0
35388 -88 12 0
35388 88 -6 -12 0
35388 -89 6 0
35388 -89 13 0
35388 89 -6 -13 0
35388 -90 6 0
35388 -90 14 0
35388 90 -6 -14 0
35388 -91 6 0
35388 -91 15 0
35388 91 -6 -15 0
35388 -92 6 0
35388 -92 16 0
35388 92 -6 -16 0
35388 -93 7 0
35388 -93 8 0
35388 93 -7 -8 0
35388 -94 7 0
35388 -94 9 0
35388 94 -7 -9 0
35388 -95 7 0
35388 -95 10 0
35388 95 -7 -10 0
35388 -96 7 0
35388 -96 11 0
35388 96 -7 -11 0
35388 -97 7 0
35388 -97 12 0
35388 97 -7 -12 0
35388 -98 7 0
35388 -98 13 0
35388 98 -7 -13 0
35388 -99 7 0
35388 -99 14 0
35388 99 -7 -14 0
35388 -100 7 0
35388 -100 15 0
35388 100 -7 -15 0
35388 -101 7 0
35388 -101 16 0
35388 101 -7 -16 0
35388 -102 8 0
35388 -102 9 0
35388 102 -8 -9 0
35388 -103 8 0
35388 -103 10 0
35388 103 -8 -10 0
35388 -104 8 0
35388 -104 11 0
35388 104 -8 -11 0
35388 -105 8 0
35388 -105 12 0
35388 105 -8 -12 0
35388 -106 8 0
35388 -106 13 0
35388 106 -8 -13 0
35388 -107 8 0
35388 -107 14 0
35388 107 -8 -14 0
35388 -108 8 0
35388 -108 15 0
35388 108 -8 -15 0
35388 -109 8 0
35388 -109 16 0
35388 109 -8 -16 0
35388 -110 9 0
35388 -110 10 0
35388 110 -9 -10 0
35388 -111 9 0
35388 -111 11 0
35388 111 -9 -11 0
35388 -112 9 0
35388 -112 12 0
35388 112 -9 -12 0
35388 -113 9 0
35388 -113 13 0
35388 113 -9 -13 0
35388 -114 9 0
35388 -114 14 0
35388 114 -9 -14 0
35388 -115 9 0
35388 -115 15 0
35388 115 -9 -15 0
35388 -116 9 0
35388 -116 16 0
35388 116 -9 -16 0
35388 -117 10 0
35388 -117 11 0
35388 117 -10 -11 0
35388 -118 10 0
35388 -118 12 0
35388 118 -10 -12 0
35388 -119 10 0
35388 -119 13 0
35388 119 -10 -13 0
35388 -120 10 0
35388 -120 14 0
35388 120 -10 -14 0
35388 -121 10 0
35388 -121 15 0
35388 121 -10 -15 0
35388 -122 10 0
35388 -122 16 0
35388 122 -10 -16 0
35388 -123 11 0
35388 -123 12 0
35388 123 -11 -12 0
35388 -124 11 0
35388 -124 13 0
35388 124 -11 -13 0
35388 -125 11 0
35388 -125 14 0
35388 125 -11 -14 0
35388 -126 11 0
35388 -126 15 0
35388 126 -11 -15 0
35388 -127 11 0
35388 -127 16 0
35388 127 -11 -16 0
35388 -128 12 0
35388 -128 13 0
35388 128 -12 -13 0
35388 -129 12 0
35388 -129 14 0
35388 129 -12 -14 0
35388 -130 12 0
35388 -130 15 0
35388 130 -12 -15 0
35388 -131 12 0
35388 -131 16 0
35388 131 -12 -16 0
35388 -132 13 0
35388 -132 14 0
35388 132 -13 -14 0
35388 -133 13 0
35388 -133 15 0
35388 133 -13 -15 0
35388 -134 13 0
35388 -134 16 0
35388 134 -13 -16 0
35388 -135 14 0
35388 -135 15 0
35388 135 -14 -15 0
35388 -136 14 0
35388 -136 16 0
35388 136 -14 -16 0
35388 -137 15 0
35388 -137 16 0
35388 137 -15 -16 0
18494 1 0
35378 -1 0
36758 18 0
35378 -18 0
38650 19 0
35378 -19 0
34786 20 0
35378 -20 0
30904 21 0
35378 -21 0
35332 22 0
35378 -22 0
36588 23 0
35378 -23 0
47342 24 0
35378 -24 0
33772 25 0
35378 -25 0
29394 26 0
35378 -26 0
35016 27 0
35378 -27 0
38968 28 0
35378 -28 0
36484 29 0
35378 -29 0
33472 30 0
35378 -30 0
34134 31 0
35378 -31 0
35506 32 0
35378 -32 0
18228 2 0
35378 -2 0
33648 33 0
35378 -33 0
35408 34 0
35378 -34 0
32308 35 0
35378 -35 0
41678 36 0
35378 -36 0
30956 37 0
35378 -37 0
28896 38 0
35378 -38 0
29528 39 0
35378 -39 0
40380 40 0
35378 -40 0
40274 41 0
35378 -41 0
34566 42 0
35378 -42 0
33894 43 0
35378 -43 0
38326 44 0
35378 -44 0
34434 45 0
35378 -45 0
35474 46 0
35378 -46 0
28349 3 0
35378 -3 0
39220 47 0
35378 -47 0
32596 48 0
35378 -48 0
40646 49 0
35378 -49 0
35466 50 0
35378 -50 0
32208 51 0
35378 -51 0
34648 52 0
35378 -52 0
32536 53 0
35378 -53 0
29610 54 0
35378 -54 0
37206 55 0
35378 -55 0
36990 56 0
35378 -56 0
28290 57 0
35378 -57 0
34698 58 0
35378 -58 0
36882 59 0
35378 -59 0
20623 4 0
35378 -4 0
37772 60 0
35378 -60 0
28960 61 0
35378 -61 0
36890 62 0
35378 -62 0
34446 63 0
35378 -63 0
38006 64 0
35378 -64 0
33388 65 0
35378 -65 0
31096 66 0
35378 -66 0
29956 67 0
35378 -67 0
38784 68 0
35378 -68 0
36814 69 0
35378 -69 0
34378 70 0
35378 -70 0
35954 71 0
35378 -71 0
22019 5 0
35378 -5 0
46458 72 0
35378 -72 0
35142 73 0
35378 -73 0
29750 74 0
35378 -74 0
41146 75 0
35378 -75 0
37192 76 0
35378 -76 0
37554 77 0
35378 -77 0
37040 78 0
35378 -78 0
35408 79 0
35378 -79 0
39014 80 0
35378 -80 0
35130 81 0
35378 -81 0
34034 82 0
35378 -82 0
24952 6 0
35378 -6 0
37602 83 0
35378 -83 0
44114 84 0
35378 -84 0
36108 85 0
35378 -85 0
36496 86 0
35378 -86 0
31586 87 0
35378 -87 0
33774 88 0
35378 -88 0
37230 89 0
35378 -89 0
33960 90 0
35378 -90 0
35750 91 0
35378 -91 0
35634 92 0
35378 -92 0
29751 7 0
35378 -7 0
36080 93 0
35378 -93 0
34284 94 0
35378 -94 0
44828 95 0
35378 -95 0
32084 96 0
35378 -96 0
36598 97 0
35378 -97 0
37078 98 0
35378 -98 0
32506 99 0
35378 -99 0
32330 100 0
35378 -100 0
36562 101 0
35378 -101 0
26091 8 0
35378 -8 0
37306 102 0
35378 -102 0
36682 103 0
35378 -103 0
41112 104 0
35378 -104 0
33340 105 0
35378 -105 0
31266 106 0
35378 -106 0
40108 107 0
35378 -107 0
37294 108 0
35378 -108 0
34418 109 0
35378 -109 0
36329 9 0
35378 -9 0
36710 110 0
35378 -110 0
38526 111 0
35378 -111 0
36870 112 0
35378 -112 0
32384 113 0
35378 -113 0
32556 114 0
35378 -114 0
35014 115 0
35378 -115 0
36562 116 0
35378 -116 0
28343 10 0
35378 -10 0
35020 117 0
35378 -117 0
36864 118 0
35378 -118 0
35268 119 0
35378 -119 0
33186 120 0
35378 -120 0
37762 121 0
35378 -121 0
35058 122 0
35378 -122 0
29012 11 0
35378 -11 0
34104 123 0
35378 -123 0
41320 124 0
35378 -124 0
31052 125 0
35378 -125 0
32934 126 0
35378 -126 0
36690 127 0
35378 -127 0
29110 12 0
35378 -12 0
37200 128 0
35378 -128 0
37984 129 0
35378 -129 0
34806 130 0
35378 -130 0
35378 131 0
35378 -131 0
37002 13 0
35378 -13 0
36204 132 0
35378 -132 0
37398 133 0
35378 -133 0
34834 134 0
35378 -134 0
37950 14 0
35378 -14 0
34594 135 0
35378 -135 0
36818 136 0
35378 -136 0
33414 15 0
35378 -15 0
35954 137 0
35378 -137 0
34194 16 0
35378 -16 0
